(set-logic HORN)
(set-info :source |
  Benchmark: test_safe_2019/termination/indirectIntro.9.ml
  Generated by MoCHi
|)
(set-info :status unknown)
(declare-fun |fail_48334[84:0]| ( Int) Bool)
(declare-fun |app[64:8][77:2]| ( Bool  Int  Int  Bool  Int  Int  Bool  Int  Bool  Int  Int) Bool)
(declare-fun |app[67:8][75:2]| ( Bool  Int  Int  Bool  Int  Int  Bool  Int  Bool  Int  Int) Bool)
(declare-fun |app[70:8][73:2]| ( Bool  Int  Int  Bool  Int  Int  Bool  Int  Bool  Int  Int) Bool)
(declare-fun |app[70:14]| ( Bool  Int  Int  Bool  Int  Int  Bool  Int  Bool  Int  Int  Bool  Int  Int) Bool)
(declare-fun |app[67:14]| ( Bool  Int  Int  Bool  Int  Int  Bool  Int  Bool  Int  Int  Bool  Int  Int) Bool)
(declare-fun |app[64:14]| ( Bool  Int  Int  Bool  Int  Int  Bool  Int  Bool  Int  Int  Bool  Int  Int) Bool)
(declare-fun |f_without_checking_251[46:3][54:0][60:2]| ( Bool  Int  Int  Bool  Int  Int) Bool)
(declare-fun |f_without_checking_251[46:2]| ( Bool  Int  Int) Bool)
(assert (not (exists ((x0 Int)) (|fail_48334[84:0]| x0))))
(assert (forall ((x0 Int)(var105 Int)(var102 Int)(x1 Int)(x2 Int)(var103 Bool)(var104 Int)) (=> (and (|app[64:8][77:2]| true var105 var102 true var105 0 true var105 true x1 x2) (and (|f_without_checking_251[46:2]| var103 var104 var105) (>= var105 1))) (|fail_48334[84:0]| x0))))
(assert (forall ((x0 Bool)(x1 Int)(x2 Int)(x3 Bool)(x4 Int)(x5 Int)(x6 Bool)(x7 Int)(x15 Bool)(x16 Int)(x17 Int)(x12 Int)(x8 Bool)(x9 Int)(x10 Int)(x13 Bool)(x14 Int)(x11 Int)) (=> (and (|app[64:14]| x0 x1 x2 x3 x4 x5 x6 x7 x8 x9 x10 x13 x14 x11) (and (|app[67:8][75:2]| x13 x14 x12 x13 x14 0 x13 x14 x15 x16 x17) (and (= (+ 1 x12) x2) (>= x2 0)))) (|app[64:8][77:2]| x0 x1 x2 x3 x4 x5 x6 x7 x15 x16 x17))))
(assert (forall ((x0 Bool)(x1 Int)(x2 Int)(x3 Bool)(x4 Int)(x5 Int)(x6 Bool)(x7 Int)(x15 Bool)(x16 Int)(x17 Int)(x12 Int)(x8 Bool)(x9 Int)(x10 Int)(x13 Bool)(x14 Int)(x11 Int)) (=> (and (|app[67:14]| x0 x1 x2 x3 x4 x5 x6 x7 x8 x9 x10 x13 x14 x11) (and (|app[70:8][73:2]| x13 x14 x12 x13 x14 0 x13 x14 x15 x16 x17) (and (= (+ 1 x12) x2) (>= x2 0)))) (|app[67:8][75:2]| x0 x1 x2 x3 x4 x5 x6 x7 x15 x16 x17))))
(assert (forall ((x0 Bool)(x1 Int)(x2 Int)(x3 Bool)(x4 Int)(x5 Int)(x6 Bool)(x7 Int)(x11 Bool)(x12 Int)(x10 Int)(x8 Bool)(x9 Int)(x13 Int)) (=> (and (|app[70:14]| x0 x1 x2 x3 x4 x5 x6 x7 x8 x9 x10 x11 x12 x13) (<= (+ 1 x2) 0)) (|app[70:8][73:2]| x0 x1 x2 x3 x4 x5 x6 x7 x11 x12 x10))))
(assert (forall ((x21 Bool)(x22 Int)(x1 Int)(x6 Bool)(x2 Int)(x0 Int)(x7 Bool)(x3 Int)(x8 Bool)(x4 Int)(x20 Int)(x9 Bool)(x5 Int)(x23 Int)(x12 Int)(x10 Bool)(x11 Int)(x13 Bool)(x14 Int)(x15 Int)(x16 Bool)(x17 Int)(x18 Bool)(x19 Int)) (=> (and (|app[67:14]| x10 x11 x12 x13 x14 x15 x16 x17 x18 x19 x20 x21 x22 x23) (and (= x0 0) (and (= (+ 1 x1) x12) (and (>= x12 0) (and (= x22 x2) (and (= x22 x3) (and (= x22 x4) (and (= x22 x5) (and (= x21 x6) (and (= x21 x7) (and (= x21 x8) (= x21 x9)))))))))))) (|app[70:14]| x21 x22 x1 x6 x2 x0 x7 x3 x8 x4 x20 x9 x5 x23))))
(assert (forall ((x21 Bool)(x22 Int)(x1 Int)(x6 Bool)(x2 Int)(x0 Int)(x7 Bool)(x3 Int)(x8 Bool)(x4 Int)(x20 Int)(x9 Bool)(x5 Int)(x23 Int)(x12 Int)(x10 Bool)(x11 Int)(x13 Bool)(x14 Int)(x15 Int)(x16 Bool)(x17 Int)(x18 Bool)(x19 Int)) (=> (and (|app[64:14]| x10 x11 x12 x13 x14 x15 x16 x17 x18 x19 x20 x21 x22 x23) (and (= x0 0) (and (= (+ 1 x1) x12) (and (>= x12 0) (and (= x22 x2) (and (= x22 x3) (and (= x22 x4) (and (= x22 x5) (and (= x21 x6) (and (= x21 x7) (and (= x21 x8) (= x21 x9)))))))))))) (|app[67:14]| x21 x22 x1 x6 x2 x0 x7 x3 x8 x4 x20 x9 x5 x23))))
(assert (forall ((x5 Bool)(x10 Int)(x9 Int)(x6 Bool)(x2 Int)(x0 Int)(x7 Bool)(x3 Int)(x8 Bool)(x4 Int)(x1 Int)(x13 Bool)(x14 Int)(x15 Int)(x12 Bool)(x11 Int)) (=> (and (|f_without_checking_251[46:2]| x12 x11 x10) (and (|f_without_checking_251[46:3][54:0][60:2]| x12 x11 x10 x13 x14 x15) (and (= x0 0) (and (= (+ 1 x1) x10) (and (>= x10 1) (and (= x2 x3) (and (= x2 x10) (and (= x2 x4) (and x5 (and x6 (and x7 x8))))))))))) (|app[64:14]| x5 x10 x9 x6 x2 x0 x7 x3 x8 x4 x1 x13 x14 x15))))
(assert (forall ((x4 Bool)(x5 Int)(x6 Int)(x1 Bool)(x2 Int)(x3 Int)) (=> (and (|f_without_checking_251[46:2]| x4 x5 x6) (and (= x5 0) (and (= x2 x5) (and (not x4) (not x1))))) (|f_without_checking_251[46:3][54:0][60:2]| x4 x5 x6 x1 x2 x3))))
(assert (forall ((x1 Bool)(x0 Int)(x3 Int)) (=> (and (= x0 0) (not x1)) (|f_without_checking_251[46:2]| x1 x0 x3))))
(check-sat)
(get-model)
(exit)
